
Gurobi 9.5.2 (mac64[arm]) logging started Fri Apr  7 14:16:01 2023

Set parameter LogFile to value "./ccga_results/2023-04-07 14-15-59-786/MSP_TimeStampConvert_gurobi_log.txt"

Gurobi 9.5.2 (mac64[arm]) logging started Fri Apr  7 14:16:01 2023

Set parameter LogFile to value "./ccga_results/2023-04-07 14-15-59-786/MSP_TimeStampConvert_gurobi_log.txt"
Set parameter TimeLimit to value 180
Gurobi Optimizer version 9.5.2 build v9.5.2rc0 (mac64[arm])
Thread count: 8 physical cores, 8 logical processors, using up to 8 threads
Optimize a model with 100 rows, 77 columns and 242 nonzeros
Model fingerprint: 0xd266c645
Variable types: 5 continuous, 72 integer (72 binary)
Coefficient statistics:
  Matrix range     [1e+00, 1e+00]
  Objective range  [1e+00, 1e+00]
  Bounds range     [5e+02, 5e+02]
  RHS range        [1e+00, 1e+00]
Found heuristic solution: objective 2000.0000000

Explored 0 nodes (0 simplex iterations) in 0.00 seconds (0.00 work units)
Thread count was 1 (of 8 available processors)

Solution count 1: 2000 

Optimal solution found (tolerance 5.00e-02)
Best objective 2.000000000000e+03, best bound 2.000000000000e+03, gap 0.0000%

User-callback calls 21, time in user-callback 0.00 sec
Gurobi Optimizer version 9.5.2 build v9.5.2rc0 (mac64[arm])
Thread count: 8 physical cores, 8 logical processors, using up to 8 threads
Optimize a model with 353 rows, 161 columns and 1019 nonzeros
Model fingerprint: 0x029e1d9a
Variable types: 81 continuous, 80 integer (80 binary)
Coefficient statistics:
  Matrix range     [9e-01, 8e+02]
  Objective range  [1e+00, 1e+00]
  Bounds range     [5e+02, 5e+02]
  RHS range        [1e+00, 1e+08]

MIP start from previous solve did not produce a new incumbent solution

Presolve removed 138 rows and 64 columns
Presolve time: 0.00s
Presolved: 215 rows, 97 columns, 676 nonzeros
Variable types: 57 continuous, 40 integer (40 binary)
Found heuristic solution: objective 1501.5835735

Root relaxation: objective 1.651584e+03, 80 iterations, 0.00 seconds (0.00 work units)

    Nodes    |    Current Node    |     Objective Bounds      |     Work
 Expl Unexpl |  Obj  Depth IntInf | Incumbent    BestBd   Gap | It/Node Time

     0     0 1651.58357    0    4 1501.58357 1651.58357  10.0%     -    0s
H    0     0                    1651.5835735 1651.58357  0.00%     -    0s
     0     0 1651.58357    0    4 1651.58357 1651.58357  0.00%     -    0s

Explored 1 nodes (80 simplex iterations) in 0.01 seconds (0.00 work units)
Thread count was 8 (of 8 available processors)

Solution count 2: 1651.58 1501.58 

Optimal solution found (tolerance 5.00e-02)
Best objective 1.651583573522e+03, best bound 1.651583573522e+03, gap 0.0000%

User-callback calls 483, time in user-callback 0.00 sec
Gurobi Optimizer version 9.5.2 build v9.5.2rc0 (mac64[arm])
Thread count: 8 physical cores, 8 logical processors, using up to 8 threads
Optimize a model with 606 rows, 245 columns and 1796 nonzeros
Model fingerprint: 0x55eaef11
Variable types: 157 continuous, 88 integer (88 binary)
Coefficient statistics:
  Matrix range     [9e-01, 8e+02]
  Objective range  [1e+00, 1e+00]
  Bounds range     [5e+02, 5e+02]
  RHS range        [1e+00, 1e+08]

MIP start from previous solve did not produce a new incumbent solution

Presolve removed 248 rows and 106 columns
Presolve time: 0.00s
Presolved: 358 rows, 139 columns, 1133 nonzeros
Variable types: 111 continuous, 28 integer (28 binary)
Found heuristic solution: objective 1004.0458677

Root relaxation: objective 1.304046e+03, 145 iterations, 0.00 seconds (0.00 work units)

    Nodes    |    Current Node    |     Objective Bounds      |     Work
 Expl Unexpl |  Obj  Depth IntInf | Incumbent    BestBd   Gap | It/Node Time

     0     0 1304.04587    0    2 1004.04587 1304.04587  29.9%     -    0s
H    0     0                    1304.0458677 1304.04587  0.00%     -    0s
     0     0 1304.04587    0    2 1304.04587 1304.04587  0.00%     -    0s

Explored 1 nodes (145 simplex iterations) in 0.02 seconds (0.01 work units)
Thread count was 8 (of 8 available processors)

Solution count 2: 1304.05 1004.05 

Optimal solution found (tolerance 5.00e-02)
Best objective 1.304045867734e+03, best bound 1.304045867734e+03, gap 0.0000%

User-callback calls 527, time in user-callback 0.00 sec
Gurobi Optimizer version 9.5.2 build v9.5.2rc0 (mac64[arm])
Thread count: 8 physical cores, 8 logical processors, using up to 8 threads
Optimize a model with 859 rows, 329 columns and 2573 nonzeros
Model fingerprint: 0xa8ed1b2e
Variable types: 233 continuous, 96 integer (96 binary)
Coefficient statistics:
  Matrix range     [9e-01, 8e+02]
  Objective range  [1e+00, 1e+00]
  Bounds range     [5e+02, 5e+02]
  RHS range        [1e+00, 1e+08]

MIP start from previous solve did not produce a new incumbent solution

Presolve removed 371 rows and 145 columns
Presolve time: 0.01s
Presolved: 488 rows, 184 columns, 1551 nonzeros
Variable types: 164 continuous, 20 integer (20 binary)
Found heuristic solution: objective 573.1773057
Found heuristic solution: objective 832.5849628
Found heuristic solution: objective 956.7193100

Explored 0 nodes (0 simplex iterations) in 0.01 seconds (0.01 work units)
Thread count was 8 (of 8 available processors)

Solution count 3: 956.719 832.585 573.177 

Optimal solution found (tolerance 5.00e-02)
Best objective 9.567193100245e+02, best bound 9.567193100245e+02, gap 0.0000%

User-callback calls 682, time in user-callback 0.00 sec
Gurobi Optimizer version 9.5.2 build v9.5.2rc0 (mac64[arm])
Thread count: 8 physical cores, 8 logical processors, using up to 8 threads
Optimize a model with 1112 rows, 413 columns and 3350 nonzeros
Model fingerprint: 0xb04bcf51
Variable types: 309 continuous, 104 integer (104 binary)
Coefficient statistics:
  Matrix range     [9e-01, 8e+02]
  Objective range  [1e+00, 1e+00]
  Bounds range     [5e+02, 5e+02]
  RHS range        [1e+00, 1e+08]

MIP start from previous solve produced solution with objective 424.613 (0.00s)
Loaded MIP start from previous solve with objective 424.613

Presolve removed 549 rows and 192 columns
Presolve time: 0.01s
Presolved: 563 rows, 221 columns, 1482 nonzeros
Variable types: 217 continuous, 4 integer (4 binary)

Root relaxation: objective 6.358537e+02, 325 iterations, 0.00 seconds (0.00 work units)

    Nodes    |    Current Node    |     Objective Bounds      |     Work
 Expl Unexpl |  Obj  Depth IntInf | Incumbent    BestBd   Gap | It/Node Time

*    0     0               0     635.8536572  635.85366  0.00%     -    0s

Explored 1 nodes (325 simplex iterations) in 0.02 seconds (0.01 work units)
Thread count was 8 (of 8 available processors)

Solution count 2: 635.854 424.613 

Optimal solution found (tolerance 5.00e-02)
Best objective 6.358536572371e+02, best bound 6.358536572371e+02, gap 0.0000%

User-callback calls 583, time in user-callback 0.00 sec
